/*********************************************
 * OPL 12.6.0.0 Data
 * Author: Adrian Rodriguez Bazaga, Pau Rodriguez Esmerats
 * Creation Date: 06/12/2017 at 23:03:03
 *********************************************/

nNurses=222;
maxConsec=2;
maxPresence=7;
maxHours=5;
minHours=1;
hours=24;
demand= [35 36 50 48 36 50 48 36 35 18 5 7 6 9 7 9 4 4 2 2 37 67 31 54  ];
